\ENCODING=ISO-8859-1
\Problem name: IloCplex

Minimize
 obj1: 194 X(1)(0)#1 + 46 X(2)(0)#2 + 128 X(3)(0)#3 + 194 X(0)(1)#4
       + 22 X(2)(1)#6 + 32 X(3)(1)#7 + 46 X(0)(2)#8 + 22 X(1)(2)#9
       + 126 X(3)(2)#11 + 126 X(0)(3)#12 + 32 X(1)(3)#13 + 128 X(2)(3)#14
Subject To
 _Entradas_node0#0: X(0)(0)#0 + X(1)(0)#1 + X(2)(0)#2 + X(3)(0)#3  = 1
 _Entradas_node1#1: X(0)(1)#4 + X(1)(1)#5 + X(2)(1)#6 + X(3)(1)#7  = 1
 _Entradas_node2#2: X(0)(2)#8 + X(1)(2)#9 + X(2)(2)#10 + X(3)(2)#11  = 1
 _Entradas_node3#3: X(0)(3)#12 + X(1)(3)#13 + X(2)(3)#14 + X(3)(3)#15  = 1
 Saidas_node0#4:    X(0)(0)#0 + X(0)(1)#4 + X(0)(2)#8 + X(0)(3)#12  = 1
 Saidas_node1#5:    X(1)(0)#1 + X(1)(1)#5 + X(1)(2)#9 + X(1)(3)#13  = 1
 Saidas_node2#6:    X(2)(0)#2 + X(2)(1)#6 + X(2)(2)#10 + X(2)(3)#14  = 1
 Saidas_node3#7:    X(3)(0)#3 + X(3)(1)#7 + X(3)(2)#11 + X(3)(3)#15  = 1
 c9#8:              X(0)(0)#0 + X(1)(1)#5 + X(2)(2)#10 + X(3)(3)#15 <= 0
 c10#9:             4 X(1)(1)#5 <= 3
 c11#10:            4 X(1)(2)#9 + x17#16 - x18#17 <= 3
 c12#11:            4 X(1)(3)#13 + x17#16 - x19#18 <= 3
 c13#12:            4 X(2)(1)#6 - x17#16 + x18#17 <= 3
 c14#13:            4 X(2)(2)#10 <= 3
 c15#14:            4 X(2)(3)#14 + x18#17 - x19#18 <= 3
 c16#15:            4 X(3)(1)#7 - x17#16 + x19#18 <= 3
 c17#16:            4 X(3)(2)#11 - x18#17 + x19#18 <= 3
 c18#17:            4 X(3)(3)#15 <= 3
Bounds
 0 <= X(0)(0)#0 <= 1
 0 <= X(1)(0)#1 <= 1
 0 <= X(2)(0)#2 <= 1
 0 <= X(3)(0)#3 <= 1
 0 <= X(0)(1)#4 <= 1
 0 <= X(1)(1)#5 <= 1
 0 <= X(2)(1)#6 <= 1
 0 <= X(3)(1)#7 <= 1
 0 <= X(0)(2)#8 <= 1
 0 <= X(1)(2)#9 <= 1
 0 <= X(2)(2)#10 <= 1
 0 <= X(3)(2)#11 <= 1
 0 <= X(0)(3)#12 <= 1
 0 <= X(1)(3)#13 <= 1
 0 <= X(2)(3)#14 <= 1
 0 <= X(3)(3)#15 <= 1
 2 <= x17#16 <= 4
 2 <= x18#17 <= 4
 2 <= x19#18 <= 4
Binaries
 X(0)(0)#0  X(1)(0)#1  X(2)(0)#2  X(3)(0)#3  X(0)(1)#4  X(1)(1)#5  X(2)(1)#6 
 X(3)(1)#7  X(0)(2)#8  X(1)(2)#9  X(2)(2)#10  X(3)(2)#11  X(0)(3)#12 
 X(1)(3)#13  X(2)(3)#14  X(3)(3)#15 
Generals
 x17#16  x18#17  x19#18 
End
